solution status: optimal solution found
objective value:                                    0
$_151_y                                            14 	(obj:0)
$_151_z                                            15 	(obj:0)
$_164_y                                            18 	(obj:0)
$_164_z                                            19 	(obj:0)
$_130_y                                            17 	(obj:0)
$_130_z                                            17 	(obj:0)
$_134_y                                            16 	(obj:0)
$_134_z                                            19 	(obj:0)
$_91_y                                             12 	(obj:0)
$_91_z                                             19 	(obj:0)
$_76_y                                             11 	(obj:0)
$_76_z                                             22 	(obj:0)
$_167_y                                            15 	(obj:0)
$_167_z                                            16 	(obj:0)
$_90_y                                             12 	(obj:0)
$_90_z                                             20 	(obj:0)
$_70_y                                             16 	(obj:0)
$_70_z                                             18 	(obj:0)
$_82_y                                             18 	(obj:0)
$_82_z                                             16 	(obj:0)
$_93_y                                             11 	(obj:0)
$_93_z                                             17 	(obj:0)
$_72_y                                             11 	(obj:0)
$_72_z                                             21 	(obj:0)
$_92_y                                             11 	(obj:0)
$_92_z                                             19 	(obj:0)
$_187_y                                            15 	(obj:0)
$_187_z                                            20 	(obj:0)
$_179_y                                            19 	(obj:0)
$_179_z                                            20 	(obj:0)
$_94_y                                             11 	(obj:0)
$_94_z                                             20 	(obj:0)
$_75_y                                             12 	(obj:0)
$_75_z                                             21 	(obj:0)
$_73_y                                             11 	(obj:0)
$_73_z                                             23 	(obj:0)
$_131_y                                            20 	(obj:0)
$_131_z                                            20 	(obj:0)
$_147_y                                            16 	(obj:0)
$_147_z                                            17 	(obj:0)
$_148_y                                            18 	(obj:0)
$_148_z                                            18 	(obj:0)
$_74_y                                             11 	(obj:0)
$_74_z                                             16 	(obj:0)
$_163_y                                            17 	(obj:0)
$_163_z                                            16 	(obj:0)
$_103_y                                            15 	(obj:0)
$_103_z                                            17 	(obj:0)
$_88_y                                             16 	(obj:0)
$_88_z                                             16 	(obj:0)
